# Solution for model micodag
# Objective value = 8.23083811941282
s_0_1 0
s_1_0 0
s_0_2 0
s_2_0 0
s_0_4 0
s_4_0 2.2315457949184170e-01
s_1_2 0
s_2_1 4.5880967671885609e-01
s_1_3 0
s_3_1 1.7608941175507065e-01
s_2_4 0
s_4_2 4.5916167122410911e-01
s_4_5 0
s_5_4 6.5853246144660726e-01
s_0_0 5.9192890467427417e-01
s_1_1 6.9033307968716029e-01
s_2_2 6.8445414502046065e-01
s_3_3 6.9524974419024366e-01
s_4_4 6.5886478706148943e-01
s_5_5 1.0337513095004021e+00
Gamma_0_0 7.6936916020482271e-01
Gamma_0_1 0
Gamma_0_2 0
Gamma_0_3 0
Gamma_0_4 0
Gamma_0_5 0
Gamma_1_0 0
Gamma_1_1 8.3086285251367487e-01
Gamma_1_2 0
Gamma_1_3 0
Gamma_1_4 0
Gamma_1_5 0
Gamma_2_0 0
Gamma_2_1 6.7735491193233155e-01
Gamma_2_2 8.2731743908880628e-01
Gamma_2_3 0
Gamma_2_4 0
Gamma_2_5 0
Gamma_3_0 0
Gamma_3_1 4.1963008919174394e-01
Gamma_3_2 0
Gamma_3_3 8.3381637318431445e-01
Gamma_3_4 0
Gamma_3_5 0
Gamma_4_0 -4.7239239990906107e-01
Gamma_4_1 0
Gamma_4_2 -6.7761469230242477e-01
Gamma_4_3 0
Gamma_4_4 8.1170486450525192e-01
Gamma_4_5 0
Gamma_5_0 0
Gamma_5_1 0
Gamma_5_2 0
Gamma_5_3 0
Gamma_5_4 -8.1150013028132506e-01
Gamma_5_5 1.0167356143562603e+00
psi_0 2
psi_1 3
psi_2 2
psi_3 0
psi_4 1
psi_5 0
g_0_0 0
g_0_1 0
g_0_2 0
g_0_3 0
g_0_4 0
g_0_5 0
g_1_0 0
g_1_1 0
g_1_2 0
g_1_3 0
g_1_4 0
g_1_5 0
g_2_0 0
g_2_1 1
g_2_2 0
g_2_3 0
g_2_4 0
g_2_5 0
g_3_0 0
g_3_1 1
g_3_2 0
g_3_3 0
g_3_4 0
g_3_5 0
g_4_0 1
g_4_1 0
g_4_2 1
g_4_3 0
g_4_4 0
g_4_5 0
g_5_0 0
g_5_1 0
g_5_2 0
g_5_3 0
g_5_4 1
g_5_5 0
T_0 0.524368744765539
T_1 3.7058107368038407e-01
T_2 3.7913362697172204e-01
T_3 0.363484153807363
T_4 4.1723694449758852e-01
T_5 -3.3194234102623454e-02
